
Gurobi 8.1.1 (mac64, Python) logging started Wed Jul 31 10:10:10 2019

Academic license - for non-commercial use only
Parameter updatemode unchanged
   Value: 1  Min: 0  Max: 1  Default: 1

Gurobi 8.1.1 (mac64, Python) logging started Wed Jul 31 10:12:37 2019

Academic license - for non-commercial use only
Parameter updatemode unchanged
   Value: 1  Min: 0  Max: 1  Default: 1

Gurobi 8.1.1 (mac64, Python) logging started Wed Jul 31 10:15:38 2019

Academic license - for non-commercial use only
Parameter updatemode unchanged
   Value: 1  Min: 0  Max: 1  Default: 1

Gurobi 8.1.1 (mac64, Python) logging started Wed Jul 31 10:17:14 2019

Academic license - for non-commercial use only
Parameter updatemode unchanged
   Value: 1  Min: 0  Max: 1  Default: 1

Gurobi 8.1.1 (mac64, Python) logging started Wed Jul 31 14:35:37 2019

Academic license - for non-commercial use only
Parameter updatemode unchanged
   Value: 1  Min: 0  Max: 1  Default: 1

Gurobi 8.1.1 (mac64, Python) logging started Wed Jul 31 14:41:28 2019

Academic license - for non-commercial use only
Parameter updatemode unchanged
   Value: 1  Min: 0  Max: 1  Default: 1

Gurobi 8.1.1 (mac64, Python) logging started Wed Jul 31 18:09:02 2019

Academic license - for non-commercial use only
Parameter updatemode unchanged
   Value: 1  Min: 0  Max: 1  Default: 1

Gurobi 8.1.1 (mac64, Python) logging started Wed Jul 31 22:04:42 2019

Academic license - for non-commercial use only
Parameter updatemode unchanged
   Value: 1  Min: 0  Max: 1  Default: 1

Gurobi 8.1.1 (mac64, Python) logging started Wed Jul 31 22:39:04 2019

Academic license - for non-commercial use only
Parameter updatemode unchanged
   Value: 1  Min: 0  Max: 1  Default: 1

Gurobi 8.1.1 (mac64, Python) logging started Wed Jul 31 22:41:54 2019

Academic license - for non-commercial use only
Parameter updatemode unchanged
   Value: 1  Min: 0  Max: 1  Default: 1

Gurobi 8.1.1 (mac64, Python) logging started Wed Jul 31 22:45:55 2019

Academic license - for non-commercial use only
Parameter updatemode unchanged
   Value: 1  Min: 0  Max: 1  Default: 1

Gurobi 8.1.1 (mac64, Python) logging started Wed Jul 31 22:59:10 2019

Academic license - for non-commercial use only
Parameter updatemode unchanged
   Value: 1  Min: 0  Max: 1  Default: 1

Gurobi 8.1.1 (mac64, Python) logging started Wed Jul 31 23:04:16 2019

Academic license - for non-commercial use only
Parameter updatemode unchanged
   Value: 1  Min: 0  Max: 1  Default: 1

Gurobi 8.1.1 (mac64, Python) logging started Wed Jul 31 23:04:50 2019

Academic license - for non-commercial use only
Parameter updatemode unchanged
   Value: 1  Min: 0  Max: 1  Default: 1

Gurobi 8.1.1 (mac64, Python) logging started Wed Jul 31 23:06:12 2019

Academic license - for non-commercial use only
Parameter updatemode unchanged
   Value: 1  Min: 0  Max: 1  Default: 1

Gurobi 8.1.1 (mac64, Python) logging started Wed Jul 31 23:12:06 2019

Academic license - for non-commercial use only
Parameter updatemode unchanged
   Value: 1  Min: 0  Max: 1  Default: 1

Gurobi 8.1.1 (mac64, Python) logging started Wed Jul 31 23:12:19 2019

Academic license - for non-commercial use only
Parameter updatemode unchanged
   Value: 1  Min: 0  Max: 1  Default: 1

Gurobi 8.1.1 (mac64, Python) logging started Wed Jul 31 23:13:22 2019

Academic license - for non-commercial use only
Parameter updatemode unchanged
   Value: 1  Min: 0  Max: 1  Default: 1
